decision_x1=[0,2];
decision_x2=[0,2];
decision_x3=[0,2];
decision_x4=[0,2];
decision_x5=[0,2];
decision_x6=[0,2];
decision_x7=[0,2];
decision_x8=[0,2];
random_y1=[0,2];
random_y2=[0,2];
constraint_x2_x1=[
0,0,9.5|
0,1,7.2|
0,2,7.3|
1,0,0.22|
1,1,5.3|
1,2,5.4|
2,0,7.3|
2,1,4.3|
2,2,9.8|
];
constraint_x4_x3=[
0,0,7.1|
0,1,4.6|
0,2,5.5|
1,0,4.1|
1,1,0.28|
1,2,1.2|
2,0,4.2|
2,1,9.5|
2,2,4.9|
];
constraint_x5_x1=[
0,0,1.4|
0,1,5.8|
0,2,10|
1,0,2.3|
1,1,6.7|
1,2,8.6|
2,0,9.3|
2,1,6.9|
2,2,0.12|
];
constraint_x5_x3=[
0,0,4.6|
0,1,8.9|
0,2,6.6|
1,0,0.077|
1,1,3.1|
1,2,2.8|
2,0,8.5|
2,1,4.2|
2,2,7.6|
];
constraint_x5_x4=[
0,0,9|
0,1,8.5|
0,2,5.3|
1,0,7.7|
1,1,2.1|
1,2,5.4|
2,0,3.7|
2,1,9.7|
2,2,3.4|
];
constraint_x6_x1=[
0,0,3.3|
0,1,2.5|
0,2,2.7|
1,0,6.9|
1,1,8.6|
1,2,1.5|
2,0,0.076|
2,1,5.6|
2,2,7.9|
];
constraint_x6_x3=[
0,0,7.5|
0,1,6.8|
0,2,9.3|
1,0,7.3|
1,1,9.1|
1,2,4|
2,0,0.82|
2,1,7.3|
2,2,5.1|
];
constraint_x7_x1=[
0,0,4.2|
0,1,7.6|
0,2,0.49|
1,0,6.2|
1,1,8|
1,2,5.3|
2,0,2.2|
2,1,4.2|
2,2,2.4|
];
constraint_x7_x5=[
0,0,0.65|
0,1,2.4|
0,2,6|
1,0,8.4|
1,1,0.24|
1,2,8.5|
2,0,1.1|
2,1,1.2|
2,2,8.6|
];
constraint_x7_x6=[
0,0,6.4|
0,1,0.96|
0,2,3.5|
1,0,5|
1,1,8.9|
1,2,1.8|
2,0,7.5|
2,1,9.8|
2,2,3.9|
];
constraint_x8_x1=[
0,0,7.1|
0,1,1.9|
0,2,7.9|
1,0,9.1|
1,1,7|
1,2,4.6|
2,0,3.3|
2,1,0.62|
2,2,7.7|
];
constraint_x8_x3=[
0,0,7.2|
0,1,8.8|
0,2,1.7|
1,0,1.8|
1,1,8.7|
1,2,2|
2,0,7.1|
2,1,2.9|
2,2,7.9|
];
constraint_x8_x4=[
0,0,2|
0,1,6.1|
0,2,2.6|
1,0,4.9|
1,1,0.47|
1,2,1.1|
2,0,4.9|
2,1,4.3|
2,2,6.9|
];
constraint_x8_x5=[
0,0,0.42|
0,1,5|
0,2,7.5|
1,0,2.5|
1,1,0.5|
1,2,7.1|
2,0,3.5|
2,1,3.1|
2,2,10|
];
constraint_x1_y1=[
0,0,8.7|
0,1,4.2|
0,2,6.6|
1,0,8.1|
1,1,8.7|
1,2,1.6|
2,0,8.3|
2,1,2.7|
2,2,1.3|
];
constraint_x2_y2=[
0,0,8.2|
0,1,3.9|
0,2,7.7|
1,0,7.3|
1,1,3.3|
1,2,1.5|
2,0,4.4|
2,1,3.1|
2,2,1.9|
];
initial_distribution_y1=[0.16,0.31,0.53];
initial_distribution_y2=[0.49,0.3,0.21];
transition_y1=[
0.37,0.62,0.01|
0.4,0.42,0.18|
0.21,0.52,0.27|
];
transition_y2=[
0.54,0.35,0.11|
0.06,0.71,0.23|
0.36,0.35,0.29|
];
